c defined variables: 25 26 27 28 29 30 31 32 33 34 35 36 37 38 39 40 41 42 43 44 45 46 47 48 49 50 51 52 53 54 55 56 57 58 59 62 63 64 66 67 68 69 70 71 72 73 74 75 76 77 79 80 81 82 83 85 86 87 88 89 90 91 92 93 94 96 97 98 99 100 101 103 104 105 106 107 108 109 110 111 112 114 115 116 117 119 120 121 122 123 124 125 126 127 129 130 131 132 133 134 136 137 138 140 141 142 143 145 146 147 148 149 150 151 152 153 155 156 157 158 159 160 161 162 164 165 166 167 168 169 170 171 172 173 174 175 176 177 178 179 180 181 182 183 184 185 186 187 188 189 
p cnf 839 1253
a 2 3 4 5 6 7 8 9 10 11 12 13 14 15 16 17 18 19 20 21 22 0
e 60 61 65 78 84 95 102 113 118 128 135 139 144 154 163 25 26 27 28 29 30 31 32 33 34 35 36 37 38 39 40 41 42 43 44 45 46 47 48 49 50 51 52 53 54 55 56 57 58 59 62 63 64 66 67 68 69 70 71 72 73 74 75 76 77 79 80 81 82 83 85 86 87 88 89 90 91 92 93 94 96 97 98 99 100 101 103 104 105 106 107 108 109 110 111 112 114 115 116 117 119 120 121 122 123 124 125 126 127 129 130 131 132 133 134 136 137 138 140 141 142 143 145 146 147 148 149 150 151 152 153 155 156 157 158 159 160 161 162 164 165 166 167 168 169 170 171 172 173 174 175 176 177 178 179 180 181 182 183 184 185 186 187 188 189 687 688 689 690 691 692 693 694 695 696 697 698 699 700 701 702 703 704 705 706 707 708 709 710 711 712 713 714 715 716 717 718 719 720 721 722 723 724 725 726 727 728 729 730 731 732 733 734 735 736 737 738 739 740 741 742 743 744 745 746 747 748 749 750 751 752 753 754 755 756 757 758 759 760 761 762 763 764 765 766 767 768 769 770 771 772 773 774 775 776 777 778 779 780 781 782 783 784 785 786 787 788 789 790 791 792 793 794 795 796 797 798 799 800 801 802 803 804 805 806 807 808 809 810 811 812 813 814 815 816 817 818 819 820 821 822 823 824 825 826 827 828 829 830 831 832 833 834 835 836 837 838 839 0
d 1 2 3 4 5 6 7 8 9 10 11 12 13 0
d 23 5 6 7 8 9 10 11 12 13 0
d 24 14 15 16 17 18 19 20 21 22 0
688 -25 0
-688 25 0
689 -26 0
-689 26 0
690 -27 0
-690 27 0
691 -28 0
-691 28 0
692 -29 0
-692 29 0
693 -30 0
-693 30 0
694 -31 0
-694 31 0
695 -32 0
-695 32 0
696 -33 0
-696 33 0
697 -34 0
-697 34 0
698 -35 0
-698 35 0
699 -36 0
-699 36 0
700 -37 0
-700 37 0
701 -38 0
-701 38 0
702 -39 0
-702 39 0
703 -40 0
-703 40 0
704 -41 0
-704 41 0
705 -42 0
-705 42 0
706 -43 0
-706 43 0
707 -44 0
-707 44 0
708 -45 0
-708 45 0
709 -46 0
-709 46 0
710 -47 0
-710 47 0
711 -48 0
-711 48 0
712 -49 0
-712 49 0
713 -50 0
-713 50 0
714 -51 0
-714 51 0
715 -52 0
-715 52 0
716 -53 0
-716 53 0
717 -54 0
-717 54 0
718 -55 0
-718 55 0
719 -56 0
-719 56 0
720 -57 0
-720 57 0
721 -58 0
-721 58 0
722 -59 0
-722 59 0
723 -62 0
-723 62 0
-687 -63 0
687 63 0
724 -64 0
-724 64 0
725 -66 0
-725 66 0
726 -67 0
-726 67 0
727 -68 0
-727 68 0
728 -69 0
-728 69 0
729 -70 0
-729 70 0
730 -71 0
-730 71 0
731 -72 0
-731 72 0
732 -73 0
-732 73 0
733 -74 0
-733 74 0
734 -75 0
-734 75 0
735 -76 0
-735 76 0
736 -77 0
-736 77 0
737 -79 0
-737 79 0
738 -80 0
-738 80 0
739 -81 0
-739 81 0
740 -82 0
-740 82 0
741 -83 0
-741 83 0
742 -85 0
-742 85 0
743 -86 0
-743 86 0
744 -87 0
-744 87 0
745 -88 0
-745 88 0
746 -89 0
-746 89 0
747 -90 0
-747 90 0
748 -91 0
-748 91 0
749 -92 0
-749 92 0
750 -93 0
-750 93 0
751 -94 0
-751 94 0
752 -96 0
-752 96 0
753 -97 0
-753 97 0
754 -98 0
-754 98 0
755 -99 0
-755 99 0
756 -100 0
-756 100 0
757 -101 0
-757 101 0
758 -103 0
-758 103 0
759 -104 0
-759 104 0
760 -105 0
-760 105 0
761 -106 0
-761 106 0
762 -107 0
-762 107 0
763 -108 0
-763 108 0
764 -109 0
-764 109 0
765 -110 0
-765 110 0
766 -111 0
-766 111 0
767 -112 0
-767 112 0
768 -114 0
-768 114 0
769 -115 0
-769 115 0
770 -116 0
-770 116 0
771 -117 0
-771 117 0
772 -119 0
-772 119 0
773 -120 0
-773 120 0
774 -121 0
-774 121 0
775 -122 0
-775 122 0
776 -123 0
-776 123 0
777 -124 0
-777 124 0
778 -125 0
-778 125 0
779 -126 0
-779 126 0
780 -127 0
-780 127 0
781 -129 0
-781 129 0
782 -130 0
-782 130 0
783 -131 0
-783 131 0
784 -132 0
-784 132 0
785 -133 0
-785 133 0
786 -134 0
-786 134 0
787 -136 0
-787 136 0
788 -137 0
-788 137 0
789 -138 0
-789 138 0
790 -140 0
-790 140 0
791 -141 0
-791 141 0
792 -142 0
-792 142 0
793 -143 0
-793 143 0
794 -145 0
-794 145 0
795 -146 0
-795 146 0
796 -147 0
-796 147 0
800 -148 0
-800 148 0
801 -149 0
-801 149 0
802 -150 0
-802 150 0
803 -151 0
-803 151 0
804 -152 0
-804 152 0
805 -153 0
-805 153 0
806 -155 0
-806 155 0
807 -156 0
-807 156 0
808 -157 0
-808 157 0
812 -158 0
-812 158 0
813 -159 0
-813 159 0
814 -160 0
-814 160 0
815 -161 0
-815 161 0
816 -162 0
-816 162 0
817 -164 0
-817 164 0
818 -165 0
-818 165 0
819 -166 0
-819 166 0
823 -167 0
-823 167 0
824 -168 0
-824 168 0
825 -169 0
-825 169 0
826 -170 0
-826 170 0
827 -171 0
-827 171 0
828 -172 0
-828 172 0
829 -173 0
-829 173 0
830 -174 0
-830 174 0
831 -175 0
-831 175 0
-687 -176 0
687 176 0
-687 -177 0
687 177 0
832 -178 0
-832 178 0
833 -179 0
-833 179 0
834 -180 0
-834 180 0
835 -181 0
-835 181 0
836 -182 0
-836 182 0
837 -183 0
-837 183 0
838 -184 0
-838 184 0
839 -185 0
-839 185 0
-687 -186 0
687 186 0
687 -187 0
-687 187 0
687 -188 0
-687 188 0
687 -189 0
-687 189 0
-25 -22 0
-25 13 0
25 22 -13 0
-26 22 0
-26 -13 0
26 -22 13 0
-27 -25 0
-27 -26 0
27 25 26 0
-28 -14 0
-28 5 0
28 14 -5 0
-29 14 0
-29 -5 0
29 -14 5 0
-30 -28 0
-30 -29 0
30 28 29 0
-31 -15 0
-31 6 0
31 15 -6 0
-32 15 0
-32 -6 0
32 -15 6 0
-33 -31 0
-33 -32 0
33 31 32 0
-34 30 0
-34 33 0
34 -30 -33 0
-35 -16 0
-35 7 0
35 16 -7 0
-36 16 0
-36 -7 0
36 -16 7 0
-37 -35 0
-37 -36 0
37 35 36 0
-38 -17 0
-38 8 0
38 17 -8 0
-39 17 0
-39 -8 0
39 -17 8 0
-40 -38 0
-40 -39 0
40 38 39 0
-41 37 0
-41 40 0
41 -37 -40 0
-42 34 0
-42 41 0
42 -34 -41 0
-43 -18 0
-43 9 0
43 18 -9 0
-44 18 0
-44 -9 0
44 -18 9 0
-45 -43 0
-45 -44 0
45 43 44 0
-46 -19 0
-46 10 0
46 19 -10 0
-47 19 0
-47 -10 0
47 -19 10 0
-48 -46 0
-48 -47 0
48 46 47 0
-49 45 0
-49 48 0
49 -45 -48 0
-50 -20 0
-50 11 0
50 20 -11 0
-51 20 0
-51 -11 0
51 -20 11 0
-52 -50 0
-52 -51 0
52 50 51 0
-53 -21 0
-53 12 0
53 21 -12 0
-54 21 0
-54 -12 0
54 -21 12 0
-55 -53 0
-55 -54 0
55 53 54 0
-56 52 0
-56 55 0
56 -52 -55 0
-57 49 0
-57 56 0
57 -49 -56 0
-58 42 0
-58 57 0
58 -42 -57 0
-59 27 0
-59 58 0
59 -27 -58 0
-60 24 0
-60 -23 0
60 -24 23 0
-61 -24 0
-61 23 0
61 24 -23 0
-62 -60 0
-62 -61 0
62 60 61 0
-63 59 0
-63 -62 0
63 -59 62 0
-64 13 0
-64 5 0
64 -13 -5 0
-65 -1 0
-65 64 0
65 1 -64 0
-66 -2 0
-66 64 0
66 2 -64 0
-67 12 0
-67 5 0
67 -12 -5 0
-68 2 0
-68 67 0
68 -2 -67 0
-69 -66 0
-69 -68 0
69 66 68 0
-70 -4 0
-70 -69 0
70 4 69 0
-71 9 0
-71 5 0
71 -9 -5 0
-72 -2 0
-72 71 0
72 2 -71 0
-73 8 0
-73 5 0
73 -8 -5 0
-74 2 0
-74 73 0
74 -2 -73 0
-75 -72 0
-75 -74 0
75 72 74 0
-76 4 0
-76 -75 0
76 -4 75 0
-77 -70 0
-77 -76 0
77 70 76 0
-78 1 0
-78 -77 0
78 -1 77 0
-79 -65 0
-79 -78 0
79 65 78 0
-80 -22 0
-80 -79 0
80 22 79 0
-81 22 0
-81 79 0
81 -22 -79 0
-82 -80 0
-82 -81 0
82 80 81 0
-83 -6 0
-83 5 0
83 6 -5 0
-84 -1 0
-84 -83 0
84 1 83 0
-85 -2 0
-85 -83 0
85 2 83 0
-86 2 0
-86 64 0
86 -2 -64 0
-87 -85 0
-87 -86 0
87 85 86 0
-88 -4 0
-88 -87 0
88 4 87 0
-89 10 0
-89 5 0
89 -10 -5 0
-90 -2 0
-90 89 0
90 2 -89 0
-91 2 0
-91 71 0
91 -2 -71 0
-92 -90 0
-92 -91 0
92 90 91 0
-93 4 0
-93 -92 0
93 -4 92 0
-94 -88 0
-94 -93 0
94 88 93 0
-95 1 0
-95 -94 0
95 -1 94 0
-96 -84 0
-96 -95 0
96 84 95 0
-97 -15 0
-97 -96 0
97 15 96 0
-98 15 0
-98 96 0
98 -15 -96 0
-99 -97 0
-99 -98 0
99 97 98 0
-100 14 0
-100 99 0
100 -14 -99 0
-101 7 0
-101 5 0
101 -7 -5 0
-102 -1 0
-102 101 0
102 1 -101 0
-103 -2 0
-103 101 0
103 2 -101 0
-104 2 0
-104 -83 0
104 -2 83 0
-105 -103 0
-105 -104 0
105 103 104 0
-106 -4 0
-106 -105 0
106 4 105 0
-107 11 0
-107 5 0
107 -11 -5 0
-108 -2 0
-108 107 0
108 2 -107 0
-109 2 0
-109 89 0
109 -2 -89 0
-110 -108 0
-110 -109 0
110 108 109 0
-111 4 0
-111 -110 0
111 -4 110 0
-112 -106 0
-112 -111 0
112 106 111 0
-113 1 0
-113 -112 0
113 -1 112 0
-114 -102 0
-114 -113 0
114 102 113 0
-115 -16 0
-115 -114 0
115 16 114 0
-116 16 0
-116 114 0
116 -16 -114 0
-117 -115 0
-117 -116 0
117 115 116 0
-118 -1 0
-118 73 0
118 1 -73 0
-119 -2 0
-119 73 0
119 2 -73 0
-120 2 0
-120 101 0
120 -2 -101 0
-121 -119 0
-121 -120 0
121 119 120 0
-122 -4 0
-122 -121 0
122 4 121 0
-123 -2 0
-123 67 0
123 2 -67 0
-124 2 0
-124 107 0
124 -2 -107 0
-125 -123 0
-125 -124 0
125 123 124 0
-126 4 0
-126 -125 0
126 -4 125 0
-127 -122 0
-127 -126 0
127 122 126 0
-128 1 0
-128 -127 0
128 -1 127 0
-129 -118 0
-129 -128 0
129 118 128 0
-130 -17 0
-130 -129 0
130 17 129 0
-131 17 0
-131 129 0
131 -17 -129 0
-132 -130 0
-132 -131 0
132 130 131 0
-133 117 0
-133 132 0
133 -117 -132 0
-134 100 0
-134 133 0
134 -100 -133 0
-135 -1 0
-135 71 0
135 1 -71 0
-136 -4 0
-136 -75 0
136 4 75 0
-137 4 0
-137 -69 0
137 -4 69 0
-138 -136 0
-138 -137 0
138 136 137 0
-139 1 0
-139 -138 0
139 -1 138 0
-140 -135 0
-140 -139 0
140 135 139 0
-141 -18 0
-141 -140 0
141 18 140 0
-142 18 0
-142 140 0
142 -18 -140 0
-143 -141 0
-143 -142 0
143 141 142 0
-144 -1 0
-144 89 0
144 1 -89 0
-145 -4 0
-145 -92 0
145 4 92 0
-146 4 0
-146 -87 0
146 -4 87 0
-147 -145 0
-147 -146 0
147 145 146 0
-148 1 0
-148 -147 0
148 -1 147 0
-149 -144 0
-149 -148 0
149 144 148 0
-150 -19 0
-150 -149 0
150 19 149 0
-151 19 0
-151 149 0
151 -19 -149 0
-152 -150 0
-152 -151 0
152 150 151 0
-153 143 0
-153 152 0
153 -143 -152 0
-154 -1 0
-154 107 0
154 1 -107 0
-155 -4 0
-155 -110 0
155 4 110 0
-156 4 0
-156 -105 0
156 -4 105 0
-157 -155 0
-157 -156 0
157 155 156 0
-158 1 0
-158 -157 0
158 -1 157 0
-159 -154 0
-159 -158 0
159 154 158 0
-160 -20 0
-160 -159 0
160 20 159 0
-161 20 0
-161 159 0
161 -20 -159 0
-162 -160 0
-162 -161 0
162 160 161 0
-163 -1 0
-163 67 0
163 1 -67 0
-164 -4 0
-164 -125 0
164 4 125 0
-165 4 0
-165 -121 0
165 -4 121 0
-166 -164 0
-166 -165 0
166 164 165 0
-167 1 0
-167 -166 0
167 -1 166 0
-168 -163 0
-168 -167 0
168 163 167 0
-169 -21 0
-169 -168 0
169 21 168 0
-170 21 0
-170 168 0
170 -21 -168 0
-171 -169 0
-171 -170 0
171 169 170 0
-172 162 0
-172 171 0
172 -162 -171 0
-173 153 0
-173 172 0
173 -153 -172 0
-174 134 0
-174 173 0
174 -134 -173 0
-175 82 0
-175 174 0
175 -82 -174 0
-176 175 0
-176 61 0
176 -175 -61 0
-177 23 0
-177 83 0
177 -23 -83 0
-178 -6 0
-178 -5 0
178 6 5 0
-179 -8 0
-179 -7 0
179 8 7 0
-180 178 0
-180 179 0
180 -178 -179 0
-181 -10 0
-181 -9 0
181 10 9 0
-182 -12 0
-182 -11 0
182 12 11 0
-183 181 0
-183 182 0
183 -181 -182 0
-184 180 0
-184 183 0
184 -180 -183 0
-185 -13 0
-185 184 0
185 13 -184 0
-186 -23 0
-186 185 0
186 23 -185 0
-187 -177 0
-187 -186 0
187 177 186 0
-188 -176 0
-188 187 0
188 176 -187 0
-189 -63 0
-189 188 0
189 63 -188 0
189 0
687 0
13 -688 0
-22 -688 0
-13 22 688 0
-13 -689 0
22 -689 0
13 -22 689 0
-25 -690 0
-26 -690 0
25 26 690 0
5 -691 0
-14 -691 0
-5 14 691 0
-5 -692 0
14 -692 0
5 -14 692 0
-28 -693 0
-29 -693 0
28 29 693 0
6 -694 0
-15 -694 0
-6 15 694 0
-6 -695 0
15 -695 0
6 -15 695 0
-31 -696 0
-32 -696 0
31 32 696 0
30 -697 0
33 -697 0
-30 -33 697 0
7 -698 0
-16 -698 0
-7 16 698 0
-7 -699 0
16 -699 0
7 -16 699 0
-35 -700 0
-36 -700 0
35 36 700 0
8 -701 0
-17 -701 0
-8 17 701 0
-8 -702 0
17 -702 0
8 -17 702 0
-38 -703 0
-39 -703 0
38 39 703 0
37 -704 0
40 -704 0
-37 -40 704 0
34 -705 0
41 -705 0
-34 -41 705 0
9 -706 0
-18 -706 0
-9 18 706 0
-9 -707 0
18 -707 0
9 -18 707 0
-43 -708 0
-44 -708 0
43 44 708 0
10 -709 0
-19 -709 0
-10 19 709 0
-10 -710 0
19 -710 0
10 -19 710 0
-46 -711 0
-47 -711 0
46 47 711 0
45 -712 0
48 -712 0
-45 -48 712 0
11 -713 0
-20 -713 0
-11 20 713 0
-11 -714 0
20 -714 0
11 -20 714 0
-50 -715 0
-51 -715 0
50 51 715 0
12 -716 0
-21 -716 0
-12 21 716 0
-12 -717 0
21 -717 0
12 -21 717 0
-53 -718 0
-54 -718 0
53 54 718 0
52 -719 0
55 -719 0
-52 -55 719 0
49 -720 0
56 -720 0
-49 -56 720 0
42 -721 0
57 -721 0
-42 -57 721 0
27 -722 0
58 -722 0
-27 -58 722 0
-60 -723 0
-61 -723 0
60 61 723 0
5 -724 0
13 -724 0
-5 -13 724 0
-2 -725 0
64 -725 0
2 -64 725 0
5 -726 0
12 -726 0
-5 -12 726 0
2 -727 0
67 -727 0
-2 -67 727 0
-66 -728 0
-68 -728 0
66 68 728 0
-4 -729 0
-69 -729 0
4 69 729 0
5 -730 0
9 -730 0
-5 -9 730 0
-2 -731 0
71 -731 0
2 -71 731 0
5 -732 0
8 -732 0
-5 -8 732 0
2 -733 0
73 -733 0
-2 -73 733 0
-72 -734 0
-74 -734 0
72 74 734 0
4 -735 0
-75 -735 0
-4 75 735 0
-70 -736 0
-76 -736 0
70 76 736 0
-65 -737 0
-78 -737 0
65 78 737 0
-22 -738 0
-79 -738 0
22 79 738 0
22 -739 0
79 -739 0
-22 -79 739 0
-80 -740 0
-81 -740 0
80 81 740 0
5 -741 0
-6 -741 0
-5 6 741 0
-2 -742 0
-83 -742 0
2 83 742 0
2 -743 0
64 -743 0
-2 -64 743 0
-85 -744 0
-86 -744 0
85 86 744 0
-4 -745 0
-87 -745 0
4 87 745 0
5 -746 0
10 -746 0
-5 -10 746 0
-2 -747 0
89 -747 0
2 -89 747 0
2 -748 0
71 -748 0
-2 -71 748 0
-90 -749 0
-91 -749 0
90 91 749 0
4 -750 0
-92 -750 0
-4 92 750 0
-88 -751 0
-93 -751 0
88 93 751 0
-84 -752 0
-95 -752 0
84 95 752 0
-15 -753 0
-96 -753 0
15 96 753 0
15 -754 0
96 -754 0
-15 -96 754 0
-97 -755 0
-98 -755 0
97 98 755 0
14 -756 0
99 -756 0
-14 -99 756 0
5 -757 0
7 -757 0
-5 -7 757 0
-2 -758 0
101 -758 0
2 -101 758 0
2 -759 0
-83 -759 0
-2 83 759 0
-103 -760 0
-104 -760 0
103 104 760 0
-4 -761 0
-105 -761 0
4 105 761 0
5 -762 0
11 -762 0
-5 -11 762 0
-2 -763 0
107 -763 0
2 -107 763 0
2 -764 0
89 -764 0
-2 -89 764 0
-108 -765 0
-109 -765 0
108 109 765 0
4 -766 0
-110 -766 0
-4 110 766 0
-106 -767 0
-111 -767 0
106 111 767 0
-102 -768 0
-113 -768 0
102 113 768 0
-16 -769 0
-114 -769 0
16 114 769 0
16 -770 0
114 -770 0
-16 -114 770 0
-115 -771 0
-116 -771 0
115 116 771 0
-2 -772 0
73 -772 0
2 -73 772 0
2 -773 0
101 -773 0
-2 -101 773 0
-119 -774 0
-120 -774 0
119 120 774 0
-4 -775 0
-121 -775 0
4 121 775 0
-2 -776 0
67 -776 0
2 -67 776 0
2 -777 0
107 -777 0
-2 -107 777 0
-123 -778 0
-124 -778 0
123 124 778 0
4 -779 0
-125 -779 0
-4 125 779 0
-122 -780 0
-126 -780 0
122 126 780 0
-118 -781 0
-128 -781 0
118 128 781 0
-17 -782 0
-129 -782 0
17 129 782 0
17 -783 0
129 -783 0
-17 -129 783 0
-130 -784 0
-131 -784 0
130 131 784 0
117 -785 0
132 -785 0
-117 -132 785 0
100 -786 0
133 -786 0
-100 -133 786 0
-4 -787 0
-75 -787 0
4 75 787 0
4 -788 0
-69 -788 0
-4 69 788 0
-136 -789 0
-137 -789 0
136 137 789 0
-135 -790 0
-139 -790 0
135 139 790 0
-18 -791 0
-140 -791 0
18 140 791 0
18 -792 0
140 -792 0
-18 -140 792 0
-141 -793 0
-142 -793 0
141 142 793 0
-4 -794 0
-92 -794 0
4 92 794 0
4 -795 0
-87 -795 0
-4 87 795 0
-145 -796 0
-146 -796 0
145 146 796 0
-65 -797 0
-84 -797 0
65 84 797 0
-135 -798 0
-144 -798 0
135 144 798 0
-147 -799 0
798 -799 0
147 -798 799 0
797 -800 0
799 -800 0
-797 -799 800 0
-144 -801 0
-148 -801 0
144 148 801 0
-19 -802 0
-149 -802 0
19 149 802 0
19 -803 0
149 -803 0
-19 -149 803 0
-150 -804 0
-151 -804 0
150 151 804 0
143 -805 0
152 -805 0
-143 -152 805 0
-4 -806 0
-110 -806 0
4 110 806 0
4 -807 0
-105 -807 0
-4 105 807 0
-155 -808 0
-156 -808 0
155 156 808 0
-84 -809 0
-102 -809 0
84 102 809 0
-144 -810 0
-154 -810 0
144 154 810 0
-157 -811 0
810 -811 0
157 -810 811 0
809 -812 0
811 -812 0
-809 -811 812 0
-154 -813 0
-158 -813 0
154 158 813 0
-20 -814 0
-159 -814 0
20 159 814 0
20 -815 0
159 -815 0
-20 -159 815 0
-160 -816 0
-161 -816 0
160 161 816 0
-4 -817 0
-125 -817 0
4 125 817 0
4 -818 0
-121 -818 0
-4 121 818 0
-164 -819 0
-165 -819 0
164 165 819 0
-102 -820 0
-118 -820 0
102 118 820 0
-154 -821 0
-163 -821 0
154 163 821 0
-166 -822 0
821 -822 0
166 -821 822 0
820 -823 0
822 -823 0
-820 -822 823 0
-163 -824 0
-167 -824 0
163 167 824 0
-21 -825 0
-168 -825 0
21 168 825 0
21 -826 0
168 -826 0
-21 -168 826 0
-169 -827 0
-170 -827 0
169 170 827 0
162 -828 0
171 -828 0
-162 -171 828 0
153 -829 0
172 -829 0
-153 -172 829 0
134 -830 0
173 -830 0
-134 -173 830 0
82 -831 0
174 -831 0
-82 -174 831 0
-5 -832 0
-6 -832 0
5 6 832 0
-7 -833 0
-8 -833 0
7 8 833 0
178 -834 0
179 -834 0
-178 -179 834 0
-9 -835 0
-10 -835 0
9 10 835 0
-11 -836 0
-12 -836 0
11 12 836 0
181 -837 0
182 -837 0
-181 -182 837 0
180 -838 0
183 -838 0
-180 -183 838 0
-13 -839 0
184 -839 0
13 -184 839 0
